db/data/628814646324029658581262491451022814.z3.out
sat
-------------------
1638.450234645
